unsat
( c4625
  c4644
  c4645
  c4649
  c4650
  c4654
  c4655
  c4659
  c4660
  c4663
  c4667
  c4671
  c4672
  c4673
  c4675
  c4676
  c4677
  c4678
  c4681
  c4682
  c4683
  c4686
  c4687
  c4688
  c4691
  c4692
  c4693
  c4696
  c4697
  c4698
  c4701
  c4702
  c4703
  c4706
  c4707
  c4708
  c4711
  c4712
  c4713
  c4716
  c4717
  c4718
  c4721
  c4722
  c4723
  c4726
  c4727
  c4728
  c4731
  c4732
  c4733
  c4745
  c4746
  c4747
  c4750
  c4751
  c4752
  c4755
  c4756
  c4757
  c4760
  c4761
  c4762
  c4765
  c4766
  c4767
  c4770
  c4771
  c4772
  c4775
  c4776
  c4777
  c4780
  c4781
  c4782
  c4785
  c4786
  c4787
  c4790
  c4791
  c4792
  c4795
  c4796
  c4797
  c4800
  c4801
  c4802
  c4814
  c4815
  c4816
  c4819
  c4820
  c4821
  c4824
  c4825
  c4826
  c4829
  c4830
  c4831
  c4834
  c4835
  c4836
  c4839
  c4840
  c4841
  c4844
  c4845
  c4846
  c4849
  c4850
  c4851
  c4854
  c4855
  c4856
  c4859
  c4860
  c4861
  c4864
  c4865
  c4866
  c4869
  c4870
  c4871
  c4883
  c4884
  c4885
  c4888
  c4889
  c4890
  c4893
  c4894
  c4895
  c4898
  c4899
  c4900
  c4903
  c4904
  c4905
  c4908
  c4909
  c4910
  c4913
  c4914
  c4915
  c4918
  c4919
  c4920
  c4923
  c4924
  c4925
  c4928
  c4929
  c4930
  c4933
  c4934
  c4935
  c4938
  c4939
  c4940
  c4952
  c4953
  c4954
  c4957
  c4958
  c4959
  c4962
  c4963
  c4964
  c4967
  c4968
  c4969
  c4972
  c4973
  c4974
  c4977
  c4978
  c4979
  c4982
  c4983
  c4984
  c4987
  c4988
  c4989
  c4992
  c4993
  c4994
  c4997
  c4998
  c4999
  c5002
  c5003
  c5004
  c5007
  c5008
  c5009
  c5021
  c5022
  c5023
  c5026
  c5027
  c5028
  c5031
  c5032
  c5033
  c5036
  c5037
  c5038
  c5041
  c5042
  c5043
  c5046
  c5047
  c5048
  c5051
  c5052
  c5053
  c5056
  c5057
  c5058
  c5061
  c5062
  c5063
  c5066
  c5067
  c5068
  c5071
  c5072
  c5073
  c5076
  c5077
  c5078
  c5090
  c5091
  c5092
  c5095
  c5096
  c5097
  c5100
  c5101
  c5102
  c5105
  c5106
  c5107
  c5110
  c5111
  c5112
  c5115
  c5116
  c5117
  c5120
  c5121
  c5122
  c5125
  c5126
  c5127
  c5130
  c5131
  c5132
  c5135
  c5136
  c5137
  c5140
  c5141
  c5142
  c5145
  c5146
  c5147
  c5159
  c5160
  c5161
  c5164
  c5165
  c5166
  c5169
  c5170
  c5171
  c5174
  c5175
  c5176
  c5179
  c5180
  c5181
  c5184
  c5185
  c5186
  c5189
  c5190
  c5191
  c5194
  c5195
  c5196
  c5199
  c5200
  c5201
  c5204
  c5205
  c5206
  c5209
  c5210
  c5211
  c5214
  c5215
  c5216
  c5228
  c5229
  c5230
  c5233
  c5234
  c5235
  c5238
  c5239
  c5240
  c5243
  c5244
  c5245
  c5248
  c5249
  c5250
  c5253
  c5254
  c5255
  c5258
  c5259
  c5260
  c5263
  c5264
  c5265
  c5268
  c5269
  c5270
  c5273
  c5274
  c5275
  c5278
  c5279
  c5280
  c5283
  c5284
  c5285
  c5297
  c5298
  c5299
  c5302
  c5303
  c5304
  c5307
  c5308
  c5309
  c5312
  c5313
  c5314
  c5317
  c5318
  c5319
  c5322
  c5323
  c5324
  c5327
  c5328
  c5329
  c5332
  c5333
  c5334
  c5339
  c5342
  c5345
  c5357
  c5358
  c5359
  c5360
  c5361
  c5362
  c5363
  c5364
  c5365
  c5366
  c5367
  c5368
  c5369
  c5370
  c5371
  c5372
  c5373
  c5374
  c5375
  c5376
  c5377
  c5378
  c5379
  c5380
  c5381
  c5382
  c5383
  c5384
  c5385
  c5386
  c5389
  c5390
  c5391
  c5394
  c5395
  c5396
  c5399
  c5400
  c5401
  c5404
  c5405
  c5406
  c5409
  c5410
  c5411
  c5414
  c5415
  c5416
  c5419
  c5420
  c5421
  c5426
  c5429
  c5432
  c5444
  c5445
  c5446
  c5447
  c5448
  c5449
  c5450
  c5451
  c5452
  c5453
  c5454
  c5455
  c5456
  c5457
  c5458
  c5459
  c5460
  c5461
  c5462
  c5463
  c5464
  c5465
  c5466
  c5467
  c5468
  c5469
  c5470
  c5471
  c5472
  c5473
  c5476
  c5477
  c5478
  c5481
  c5482
  c5483
  c5486
  c5487
  c5488
  c5491
  c5492
  c5493
  c5496
  c5497
  c5498
  c5501
  c5502
  c5503
  c5506
  c5507
  c5508
  c5513
  c5516
  c5519
  c5531
  c5532
  c5533
  c5534
  c5535
  c5536
  c5537
  c5538
  c5539
  c5540
  c5541
  c5542
  c5543
  c5544
  c5545
  c5546
  c5547
  c5548
  c5549
  c5550
  c5551
  c5552
  c5553
  c5554
  c5555
  c5556
  c5557
  c5558
  c5559
  c5560
  c5561
  c5562
  c5563
  c5564
  c5565
  c5566
  c5567
  c5568
  c5569
  c5570
  c5571
  c5572
  c5573
  c5574
  c5575
  c5576
  c5577
  c5578
  c5579
  c5580
  c5581
  c5582
  c5583
  c5584
  c932
  c988 )
